NAME: Random_75_3
ELLAPSED_TIME_(ms): 240
TOUR_SIZE: 1465
TOUR_SECTION
0
38
66
15
65
28
27
48
43
22
33
72
11
36
7
14
32
25
6
23
2
16
29
58
74
42
26
30
5
57
31
8
60
19
67
54
51
18
55
71
70
64
41
62
68
9
46
44
73
56
39
34
13
47
61
50
53
1
49
35
37
40
17
52
10
21
20
63
24
45
59
3
12
69
4
0
EOF
